Solver command line: ['C:\\Program Files\\IBM\\ILOG\\CPLEX_Studio2211\\cplex\\bin\\x64_win64\\cplex.exe']


Welcome to IBM(R) ILOG(R) CPLEX(R) Interactive Optimizer 22.1.1.0
  with Simplex, Mixed Integer & Barrier Optimizers
5725-A06 5725-A29 5724-Y48 5724-Y49 5724-Y54 5724-Y55 5655-Y21
Copyright IBM Corp. 1988, 2022.  All Rights Reserved.

Type 'help' for a list of available commands.
Type 'help' followed by a command name for more
information on commands.

CPLEX> Logfile 'cplex.log' closed.
Logfile 'C:\Users\wangy\Documents\GitHub\re_optimization\result_site_specific\tmpu44vd99h.cplex.log' open.
CPLEX> Problem 'C:\Users\wangy\Documents\GitHub\re_optimization\result_site_specific\tmpeeewihgx.pyomo.lp' read.
Read time = 0.22 sec. (7.29 ticks)
CPLEX> Problem name         : C:\Users\wangy\Documents\GitHub\re_optimization\result_site_specific\tmpeeewihgx.pyomo.lp
Objective sense      : Minimize
Variables            :   52617  [Nneg: 27764,  Free: 8786,  Binary: 7,
                                 Other: 16060]
Objective nonzeros   :      14
Linear constraints   :   73052  [Less: 39437,  Greater: 3,  Equal: 33612]
  Nonzeros           :  181258
  RHS nonzeros       :    4027

Variables            : Min LB: 0.000000         Max UB: 1.000000       
Objective nonzeros   : Min   : 1.000000         Max   : 1.000000       
Linear constraints   :
  Nonzeros           : Min   : 0.001865085      Max   : 100000.0       
  RHS nonzeros       : Min   : 0.01700000       Max   : 1000.000       
CPLEX> Version identifier: 22.1.1.0 | 2022-11-27 | 9160aff4d
Tried aggregator 3 times.
MIP Presolve eliminated 47883 rows and 28904 columns.
Aggregator did 7399 substitutions.
Reduced MIP has 17770 rows, 16314 columns, and 51564 nonzeros.
Reduced MIP has 5 binaries, 0 generals, 0 SOSs, and 0 indicators.
Presolve time = 0.12 sec. (152.73 ticks)
Found incumbent of value 172612.278870 after 0.17 sec. (177.81 ticks)
Probing time = 0.00 sec. (1.08 ticks)
Tried aggregator 1 time.
Detecting symmetries...
Reduced MIP has 17770 rows, 16314 columns, and 51564 nonzeros.
Reduced MIP has 5 binaries, 0 generals, 0 SOSs, and 0 indicators.
Presolve time = 0.03 sec. (30.49 ticks)
Probing time = 0.02 sec. (0.97 ticks)
MIP emphasis: balance optimality and feasibility.
MIP search method: dynamic search.
Parallel mode: deterministic, using up to 16 threads.
Root relaxation solution time = 0.58 sec. (547.74 ticks)

        Nodes                                         Cuts/
   Node  Left     Objective  IInf  Best Integer    Best Bound    ItCnt     Gap

*     0+    0                       172612.2789   -10901.7345           106.32%
*     0+    0                         5656.1107   -10901.7345           292.74%
      0     0     5650.9844     1     5656.1107     5650.9844       60    0.09%
*     0+    0                         5656.0975     5650.9844             0.09%
      0     0        cutoff           5656.0975                     88    0.00%
Elapsed time = 0.94 sec. (863.90 ticks, tree = 0.01 MB, solutions = 3)

Root node processing (before b&c):
  Real time             =    0.95 sec. (866.39 ticks)
Parallel b&c, 16 threads:
  Real time             =    0.00 sec. (0.00 ticks)
  Sync time (average)   =    0.00 sec.
  Wait time (average)   =    0.00 sec.
                          ------------
Total (root+branch&cut) =    0.95 sec. (866.39 ticks)

Solution pool: 3 solutions saved.

MIP - Integer optimal solution:  Objective =  5.6560974692e+03
Solution time =    0.95 sec.  Iterations = 88  Nodes = 0
Deterministic time = 866.54 ticks  (909.28 ticks/sec)

CPLEX> Incumbent solution written to file 'C:\Users\wangy\Documents\GitHub\re_optimization\result_site_specific\tmpyeuo0o5f.cplex.sol'.
CPLEX> 
